(set-logic HORN)
(set-info :source |
    Benchmark: C_VC
    Output by Princess (http://www.philipp.ruemmer.org/princess.shtml)
|)
(set-info :status unsat)
;===============================================================================
; Encoding of Heap sorts and operations
;-------------------------------------------------------------------------------
(define-sort Addr() Int)
(declare-datatypes ((HeapObject 0) (node 0))
                   (((O_Int (getInt Int)) (O_Addr (getAddr Addr)) (O_node (getnode node)) (defObj))
                   ((node (h Int) (n Addr)))))
(declare-datatypes ((AllocResHeap 0) (Heap 0))
                   (((AllocResHeap   (newHeap Heap) (newAddr Addr)))
                    ((HeapCtor (HeapSize Int)
                               (HeapContents (Array Addr HeapObject))))))
(define-fun nullAddr  () Addr 0)
(define-fun defHeapObject    () HeapObject defObj)
(define-fun valid     ((h Heap) (p Addr)) Bool
  (and (>= (HeapSize h) p) (> p 0)))
(define-fun emptyHeap () Heap (
  HeapCtor 0 (( as const (Array Addr HeapObject)) defHeapObject)))
(define-fun read ((h Heap) (p Addr)) HeapObject
  (ite (valid h p)
       (select (HeapContents h) p)
       defHeapObject))
(define-fun write ((h Heap) (p Addr) (o HeapObject)) Heap
  (ite (valid h p)
       (HeapCtor (HeapSize h) (store (HeapContents h) p o))
       h))
(define-fun alloc   ((h Heap) (o HeapObject)) AllocResHeap
  (AllocResHeap (HeapCtor (+ 1 (HeapSize h))
                    (store (HeapContents h) (+ 1 (HeapSize h)) o))
          (+ 1 (HeapSize h))))

;===============================================================================
(declare-fun inv_main12 (Heap Int Addr Addr Addr) Bool)
(declare-fun inv_main13 (Heap Int Addr Addr Addr) Bool)
(declare-fun inv_main17 (Heap Int Addr Addr Addr) Bool)
(declare-fun inv_main18 (Heap Int Addr Addr Addr) Bool)
(declare-fun inv_main23 (Heap Int Addr Addr Addr) Bool)
(declare-fun inv_main26 (Heap Int Addr Addr Addr Int) Bool)
(declare-fun inv_main29 (Heap Int Addr Addr Addr) Bool)
(declare-fun inv_main3 (Heap Int) Bool)
(declare-fun inv_main33 (Heap Int Addr Addr Addr) Bool)
(declare-fun inv_main37 (Heap Int Addr Addr Addr) Bool)
(declare-fun inv_main40 (Heap Int Addr Addr Addr) Bool)
(declare-fun inv_main44 (Heap Int Addr Addr Addr) Bool)
(declare-fun inv_main49 (Heap Int Addr Addr Addr) Bool)
(declare-fun inv_main53 (Heap Int Addr Addr Addr Addr) Bool)
(declare-fun inv_main57 (Heap Int Addr Addr Addr) Bool)
(declare-fun inv_main8 (Heap Int Addr Int) Bool)
(assert (forall ((var0 Heap)) (or (not (= var0 emptyHeap)) (inv_main3 var0 1))))
(assert (forall ((var0 Addr) (var1 Int) (var2 Addr) (var3 Heap) (var4 Int) (var5 Addr)) (or (not (and (inv_main12 var3 var4 var0 var2 var5) (and (= var4 0) (not (= var1 0))))) (inv_main18 var3 var4 var0 var2 var5))))
(assert (forall ((var0 Addr) (var1 Addr) (var2 Int) (var3 Addr) (var4 Addr) (var5 Heap) (var6 Addr) (var7 Int) (var8 Heap) (var9 Addr) (var10 Addr)) (or (not (and (inv_main29 var5 var7 var1 var4 var10) (and (and (and (and (and (= var8 var5) (= var2 var7)) (= var3 var1)) (= var9 var4)) (= var6 var10)) (= var0 (n (getnode (read var5 var10))))))) (inv_main12 var8 var2 var3 var9 var0))))
(assert (forall ((var0 Addr) (var1 Int) (var2 node) (var3 Addr) (var4 Heap) (var5 Heap) (var6 Int)) (or (not (and (inv_main3 var4 var6) (and (not (= var0 nullAddr)) (and (and (= var5 (newHeap (alloc var4 (O_node var2)))) (= var1 var6)) (= var0 (newAddr (alloc var4 (O_node var2)))))))) (inv_main12 var5 var1 var0 var3 var0))))
(assert (forall ((var0 Addr) (var1 Addr) (var2 Addr) (var3 Heap) (var4 Addr) (var5 Int) (var6 Addr) (var7 Heap) (var8 Addr) (var9 Int) (var10 Addr) (var11 Addr) (var12 Addr)) (or (not (and (inv_main53 var7 var9 var1 var6 var12 var2) (and (and (and (and (and (and (= var3 var7) (= var5 var9)) (= var8 var1)) (= var11 var6)) (= var10 var12)) (= var4 var2)) (= var0 (n (getnode (read var7 var12))))))) (inv_main49 (write var3 var4 defObj) var5 var8 var11 var0))))
(assert (forall ((var0 Addr) (var1 Addr) (var2 Addr) (var3 Int) (var4 Addr) (var5 Addr) (var6 Heap) (var7 Int) (var8 Heap) (var9 Int) (var10 Addr)) (or (not (and (inv_main33 var6 var7 var0 var5 var10) (and (= var3 3) (and (and (and (and (and (= var8 var6) (= var9 var7)) (= var4 var0)) (= var2 var5)) (= var1 var10)) (= var3 (h (getnode (read var6 var10)))))))) (inv_main49 var8 var9 var4 var2 var4))))
(assert (forall ((var0 Addr) (var1 Int) (var2 Addr) (var3 Addr) (var4 Addr) (var5 Addr) (var6 Heap) (var7 Int) (var8 Addr) (var9 Heap) (var10 Addr)) (or (not (and (inv_main37 var6 var7 var0 var5 var10) (and (and (and (and (and (= var9 var6) (= var1 var7)) (= var2 var0)) (= var8 var5)) (= var3 var10)) (= var4 (n (getnode (read var6 var10))))))) (inv_main33 var9 var1 var2 var8 var4))))
(assert (forall ((var0 Addr) (var1 Heap) (var2 Addr) (var3 Heap) (var4 Int) (var5 Int) (var6 Addr) (var7 Addr) (var8 Addr) (var9 Addr)) (or (not (and (inv_main13 var3 var5 var0 var2 var8) (and (and (and (and (= var1 (write var3 var8 (O_node (node 3 (n (getnode (read var3 var8))))))) (= var4 var5)) (= var9 var0)) (= var7 var2)) (= var6 var8)))) (inv_main33 var1 1 var9 var7 var9))))
(assert (forall ((var0 Addr) (var1 Int) (var2 Addr) (var3 Heap) (var4 Int) (var5 Addr)) (or (not (and (inv_main12 var3 var4 var0 var2 var5) (= var1 0))) (inv_main13 var3 var4 var0 var2 var5))))
(assert (forall ((var0 Addr) (var1 Addr) (var2 Heap) (var3 Int) (var4 Addr)) (or (not (inv_main23 var2 var3 var0 var1 var4)) (inv_main29 (write var2 var4 (O_node (node (h (getnode (read var2 var4))) var1))) var3 var0 var1 var4))))
(assert (forall ((var0 Addr) (var1 Int) (var2 Heap) (var3 Addr) (var4 Addr) (var5 Addr) (var6 Heap) (var7 Int) (var8 Addr) (var9 Addr) (var10 Int)) (or (not (and (inv_main40 var6 var7 var0 var5 var9) (and (= var10 1) (and (and (and (and (and (= var2 var6) (= var1 var7)) (= var8 var0)) (= var4 var5)) (= var3 var9)) (= var10 (h (getnode (read var6 var9)))))))) (inv_main37 var2 var1 var8 var4 var3))))
(assert (forall ((var0 Int) (var1 Addr) (var2 Heap) (var3 Int) (var4 Addr) (var5 Addr) (var6 Heap) (var7 Int) (var8 Addr) (var9 Addr) (var10 Addr)) (or (not (and (inv_main44 var6 var7 var1 var5 var9) (and (= var0 2) (and (and (and (and (and (= var2 var6) (= var3 var7)) (= var8 var1)) (= var4 var5)) (= var10 var9)) (= var0 (h (getnode (read var6 var9)))))))) (inv_main37 var2 var3 var8 var4 var10))))
(assert (forall ((var0 Int) (var1 Addr) (var2 Addr) (var3 Addr) (var4 Addr) (var5 Addr) (var6 Heap) (var7 Int) (var8 Heap) (var9 Addr) (var10 Int)) (or (not (and (inv_main40 var6 var7 var1 var5 var9) (and (not (= var10 1)) (and (and (and (and (and (= var8 var6) (= var0 var7)) (= var2 var1)) (= var3 var5)) (= var4 var9)) (= var10 (h (getnode (read var6 var9)))))))) (inv_main57 var8 var0 var2 var3 var4))))
(assert (forall ((var0 Addr) (var1 Addr) (var2 Int) (var3 Addr) (var4 Heap) (var5 Int) (var6 Int) (var7 Addr) (var8 Heap) (var9 Addr) (var10 Addr)) (or (not (and (inv_main44 var4 var6 var1 var3 var9) (and (not (= var2 2)) (and (and (and (and (and (= var8 var4) (= var5 var6)) (= var0 var1)) (= var7 var3)) (= var10 var9)) (= var2 (h (getnode (read var4 var9)))))))) (inv_main57 var8 var5 var0 var7 var10))))
(assert (forall ((var0 Addr) (var1 Addr) (var2 Addr) (var3 Heap) (var4 node) (var5 Int) (var6 Heap) (var7 Addr) (var8 Addr) (var9 Addr) (var10 Addr) (var11 Int) (var12 Heap) (var13 Addr) (var14 Addr) (var15 Addr) (var16 Int)) (or (not (and (inv_main17 var3 var5 var8 var13 var15) (and (and (not (= var0 nullAddr)) (and (and (and (and (and (= var6 (newHeap (alloc var12 (O_node var4)))) (= var11 0)) (= var14 var1)) (= var7 var9)) (= var10 var2)) (= var0 (newAddr (alloc var12 (O_node var4)))))) (and (and (and (and (= var12 (write var3 var15 (O_node (node 2 (n (getnode (read var3 var15))))))) (= var16 var5)) (= var1 var8)) (= var9 var13)) (= var2 var15))))) (inv_main23 var6 var11 var14 var0 var10))))
(assert (forall ((var0 Int) (var1 Addr) (var2 Int) (var3 Addr) (var4 Heap) (var5 Addr) (var6 Int) (var7 node) (var8 Addr) (var9 Heap) (var10 Addr) (var11 Addr) (var12 Addr) (var13 Addr) (var14 Addr) (var15 Heap) (var16 Addr)) (or (not (and (inv_main18 var4 var6 var12 var14 var16) (and (and (not (= var8 nullAddr)) (and (and (and (and (and (= var9 (newHeap (alloc var15 (O_node var7)))) (= var0 1)) (= var1 var10)) (= var5 var3)) (= var13 var11)) (= var8 (newAddr (alloc var15 (O_node var7)))))) (and (and (and (and (= var15 (write var4 var16 (O_node (node 1 (n (getnode (read var4 var16))))))) (= var2 var6)) (= var10 var12)) (= var3 var14)) (= var11 var16))))) (inv_main23 var9 var0 var1 var8 var13))))
(assert (forall ((var0 Addr) (var1 Addr) (var2 Addr) (var3 Addr) (var4 Heap) (var5 Int) (var6 Addr) (var7 Heap) (var8 Int) (var9 Int) (var10 Addr)) (or (not (and (inv_main33 var7 var8 var0 var6 var10) (and (not (= var5 0)) (and (not (= var9 3)) (and (and (and (and (and (= var4 var7) (= var5 var8)) (= var1 var0)) (= var2 var6)) (= var3 var10)) (= var9 (h (getnode (read var7 var10))))))))) (inv_main40 var4 0 var1 var2 var3))))
(assert (forall ((var0 Addr) (var1 Addr) (var2 Heap) (var3 Int) (var4 Int) (var5 Addr)) (or (not (inv_main26 var2 var3 var0 var1 var5 var4)) (inv_main26 var2 var3 var0 var1 var5 var4))))
(assert (forall ((var0 Addr) (var1 Int) (var2 Addr) (var3 Addr) (var4 Heap) (var5 Int) (var6 Addr) (var7 Heap) (var8 Addr) (var9 Addr) (var10 Addr) (var11 Heap) (var12 Addr) (var13 Addr) (var14 Addr) (var15 node) (var16 Int)) (or (not (and (inv_main17 var4 var5 var8 var12 var14) (and (and (= var13 nullAddr) (and (and (and (and (and (= var7 (newHeap (alloc var11 (O_node var15)))) (= var1 0)) (= var6 var2)) (= var0 var9)) (= var10 var3)) (= var13 (newAddr (alloc var11 (O_node var15)))))) (and (and (and (and (= var11 (write var4 var14 (O_node (node 2 (n (getnode (read var4 var14))))))) (= var16 var5)) (= var2 var8)) (= var9 var12)) (= var3 var14))))) (inv_main26 var7 var1 var6 var13 var10 1))))
(assert (forall ((var0 Addr) (var1 Int) (var2 Int) (var3 Addr) (var4 Heap) (var5 Int) (var6 Addr) (var7 Addr) (var8 Addr) (var9 Addr) (var10 Heap) (var11 Addr) (var12 Addr) (var13 Heap) (var14 node) (var15 Addr) (var16 Addr)) (or (not (and (inv_main18 var4 var5 var9 var11 var16) (and (and (= var0 nullAddr) (and (and (and (and (and (= var10 (newHeap (alloc var13 (O_node var14)))) (= var1 1)) (= var15 var6)) (= var8 var3)) (= var12 var7)) (= var0 (newAddr (alloc var13 (O_node var14)))))) (and (and (and (and (= var13 (write var4 var16 (O_node (node 1 (n (getnode (read var4 var16))))))) (= var2 var5)) (= var6 var9)) (= var3 var11)) (= var7 var16))))) (inv_main26 var10 var1 var15 var0 var12 1))))
(assert (forall ((var0 Addr) (var1 Addr) (var2 Addr) (var3 Addr) (var4 Heap) (var5 Int) (var6 Addr) (var7 Heap) (var8 Int) (var9 Int) (var10 Addr)) (or (not (and (inv_main33 var7 var8 var0 var6 var10) (and (= var5 0) (and (not (= var9 3)) (and (and (and (and (and (= var4 var7) (= var5 var8)) (= var1 var0)) (= var2 var6)) (= var3 var10)) (= var9 (h (getnode (read var7 var10))))))))) (inv_main44 var4 1 var1 var2 var3))))
(assert (forall ((var0 Addr) (var1 Int) (var2 Addr) (var3 Heap) (var4 Int) (var5 Addr)) (or (not (and (inv_main12 var3 var4 var0 var2 var5) (and (not (= var4 0)) (not (= var1 0))))) (inv_main17 var3 var4 var0 var2 var5))))
(assert (forall ((var0 Addr) (var1 Heap) (var2 Int) (var3 Int)) (or (not (inv_main8 var1 var2 var0 var3)) (inv_main8 var1 var2 var0 var3))))
(assert (forall ((var0 node) (var1 Addr) (var2 Heap) (var3 Heap) (var4 Int) (var5 Int)) (or (not (and (inv_main3 var3 var4) (and (= var1 nullAddr) (and (and (= var2 (newHeap (alloc var3 (O_node var0)))) (= var5 var4)) (= var1 (newAddr (alloc var3 (O_node var0)))))))) (inv_main8 var2 var5 var1 1))))
(assert (forall ((var0 Addr) (var1 Heap) (var2 Addr) (var3 Addr) (var4 Heap) (var5 Int) (var6 Int) (var7 Addr) (var8 Int) (var9 Addr) (var10 Addr)) (or (not (and (inv_main49 var4 var6 var0 var3 var9) (and (not (= var5 3)) (and (and (and (and (and (= var1 var4) (= var8 var6)) (= var2 var0)) (= var10 var3)) (= var7 var9)) (= var5 (h (getnode (read var4 var9)))))))) (inv_main53 var1 var8 var2 var10 var7 var7))))
(assert (forall ((var0 Addr) (var1 Addr) (var2 Heap) (var3 Int) (var4 Addr)) (not (and (inv_main17 var2 var3 var0 var1 var4) (not (is-O_node (read var2 var4)))))))
(assert (forall ((var0 Addr) (var1 Addr) (var2 Heap) (var3 Int) (var4 Addr)) (not (and (inv_main18 var2 var3 var0 var1 var4) (not (is-O_node (read var2 var4)))))))
(assert (forall ((var0 Addr) (var1 Addr) (var2 Heap) (var3 Int) (var4 Addr)) (not (and (inv_main23 var2 var3 var0 var1 var4) (not (is-O_node (read var2 var4)))))))
(assert (forall ((var0 Addr) (var1 Addr) (var2 Heap) (var3 Int) (var4 Addr)) (not (and (inv_main29 var2 var3 var0 var1 var4) (not (is-O_node (read var2 var4)))))))
(assert (forall ((var0 Addr) (var1 Addr) (var2 Heap) (var3 Int) (var4 Addr)) (not (and (inv_main13 var2 var3 var0 var1 var4) (not (is-O_node (read var2 var4)))))))
(assert (forall ((var0 Addr) (var1 Addr) (var2 Heap) (var3 Int) (var4 Addr)) (not (and (inv_main33 var2 var3 var0 var1 var4) (not (is-O_node (read var2 var4)))))))
(assert (forall ((var0 Addr) (var1 Addr) (var2 Heap) (var3 Int) (var4 Addr)) (not (and (inv_main40 var2 var3 var0 var1 var4) (not (is-O_node (read var2 var4)))))))
(assert (forall ((var0 Addr) (var1 Addr) (var2 Heap) (var3 Int) (var4 Addr)) (not (and (inv_main44 var2 var3 var0 var1 var4) (not (is-O_node (read var2 var4)))))))
(assert (forall ((var0 Addr) (var1 Addr) (var2 Heap) (var3 Int) (var4 Addr)) (not (and (inv_main37 var2 var3 var0 var1 var4) (not (is-O_node (read var2 var4)))))))
(assert (forall ((var0 Addr) (var1 Addr) (var2 Heap) (var3 Int) (var4 Addr)) (not (and (inv_main49 var2 var3 var0 var1 var4) (not (is-O_node (read var2 var4)))))))
(assert (forall ((var0 Addr) (var1 Addr) (var2 Addr) (var3 Heap) (var4 Int) (var5 Addr)) (not (and (inv_main53 var3 var4 var0 var2 var5 var1) (not (is-O_node (read var3 var5)))))))
(assert (forall ((var0 Addr) (var1 Addr) (var2 Heap) (var3 Int) (var4 Addr)) (not (inv_main57 var2 var3 var0 var1 var4))))
(check-sat)
